c CNF
c from Selman's wff generator
p cnf 200  1300
1.0 96 -94 0
1.0 -101 117 0
1.0 13 38 0
1.0 12 -4 0
1.0 53 -185 0
1.0 -136 24 0
1.0 33 -66 0
1.0 7 -1 0
1.0 95 -136 0
1.0 52 2 0
1.0 -40 110 0
1.0 114 -182 0
1.0 -167 -6 0
1.0 -30 21 0
1.0 -86 76 0
1.0 -77 -52 0
1.0 -187 93 0
1.0 -95 -43 0
1.0 -153 12 0
1.0 193 -187 0
1.0 193 143 0
1.0 163 51 0
1.0 -126 84 0
1.0 -135 -133 0
1.0 -26 -138 0
1.0 181 -64 0
1.0 -75 40 0
1.0 27 32 0
1.0 174 -88 0
1.0 -138 125 0
1.0 9 -124 0
1.0 57 39 0
1.0 177 -25 0
1.0 88 -57 0
1.0 97 -88 0
1.0 -119 55 0
1.0 143 184 0
1.0 -109 -14 0
1.0 138 -11 0
1.0 50 123 0
1.0 -148 79 0
1.0 -135 72 0
1.0 -160 25 0
1.0 -80 98 0
1.0 -81 -200 0
1.0 -14 -47 0
1.0 -57 -165 0
1.0 -88 21 0
1.0 99 114 0
1.0 186 -66 0
1.0 90 -20 0
1.0 -117 -195 0
1.0 -195 93 0
1.0 -139 -92 0
1.0 -57 -103 0
1.0 -123 34 0
1.0 148 -49 0
1.0 114 120 0
1.0 -139 101 0
1.0 95 162 0
1.0 54 -38 0
1.0 -130 -54 0
1.0 -157 89 0
1.0 122 110 0
1.0 159 155 0
1.0 74 79 0
1.0 180 47 0
1.0 -9 118 0
1.0 156 58 0
1.0 112 42 0
1.0 -130 2 0
1.0 -112 47 0
1.0 -1 122 0
1.0 1 -18 0
1.0 64 152 0
1.0 -70 15 0
1.0 -73 -189 0
1.0 30 -182 0
1.0 183 198 0
1.0 -44 131 0
1.0 -53 107 0
1.0 124 -4 0
1.0 156 85 0
1.0 100 -194 0
1.0 -182 161 0
1.0 -142 -8 0
1.0 6 180 0
1.0 111 -184 0
1.0 90 11 0
1.0 -14 -48 0
1.0 -133 60 0
1.0 53 44 0
1.0 5 -160 0
1.0 167 -15 0
1.0 195 -89 0
1.0 72 -114 0
1.0 -124 -84 0
1.0 -131 174 0
1.0 33 101 0
1.0 -145 -99 0
1.0 59 165 0
1.0 -179 -165 0
1.0 53 -18 0
1.0 132 145 0
1.0 -28 -59 0
1.0 33 101 0
1.0 -1 -117 0
1.0 15 70 0
1.0 34 190 0
1.0 -154 96 0
1.0 -113 62 0
1.0 7 16 0
1.0 -75 -93 0
1.0 -193 -14 0
1.0 -130 -122 0
1.0 192 35 0
1.0 24 -117 0
1.0 -12 -21 0
1.0 -83 114 0
1.0 -129 68 0
1.0 -160 -115 0
1.0 -128 82 0
1.0 3 -85 0
1.0 119 -21 0
1.0 -137 -56 0
1.0 77 -102 0
1.0 15 -41 0
1.0 -109 169 0
1.0 84 57 0
1.0 139 -166 0
1.0 -51 -72 0
1.0 -93 155 0
1.0 -10 30 0
1.0 131 -50 0
1.0 -91 89 0
1.0 -36 67 0
1.0 87 154 0
1.0 -24 172 0
1.0 -107 72 0
1.0 183 17 0
1.0 -194 157 0
1.0 -1 88 0
1.0 -177 132 0
1.0 -199 94 0
1.0 -48 136 0
1.0 -108 42 0
1.0 114 154 0
1.0 -171 -146 0
1.0 102 -51 0
1.0 -139 -141 0
1.0 -73 145 0
1.0 -39 33 0
1.0 -169 95 0
1.0 137 124 0
1.0 -77 166 0
1.0 112 54 0
1.0 -104 19 0
1.0 -159 109 0
1.0 -54 86 0
1.0 -119 60 0
1.0 -155 136 0
1.0 -59 -53 0
1.0 -18 -85 0
1.0 -139 193 0
1.0 11 -57 0
1.0 166 43 0
1.0 -128 104 0
1.0 -164 -90 0
1.0 25 95 0
1.0 147 -148 0
1.0 33 -200 0
1.0 193 34 0
1.0 -91 98 0
1.0 140 173 0
1.0 -77 186 0
1.0 -75 46 0
1.0 -141 165 0
1.0 112 -1 0
1.0 -1 -144 0
1.0 -178 128 0
1.0 -25 -167 0
1.0 140 200 0
1.0 186 146 0
1.0 -192 -13 0
1.0 178 143 0
1.0 143 -71 0
1.0 -14 -149 0
1.0 76 -130 0
1.0 97 184 0
1.0 183 -97 0
1.0 42 108 0
1.0 -121 188 0
1.0 -130 185 0
1.0 55 22 0
1.0 170 150 0
1.0 -80 -119 0
1.0 102 11 0
1.0 108 -63 0
1.0 -171 80 0
1.0 -68 -148 0
1.0 132 -176 0
1.0 198 -84 0
1.0 34 -113 0
1.0 31 -158 0
1.0 169 101 0
1.0 164 -69 0
1.0 148 7 0
1.0 154 13 0
1.0 188 -81 0
1.0 -165 -125 0
1.0 -37 164 0
1.0 -122 1 0
1.0 -102 17 0
1.0 -85 190 0
1.0 197 -22 0
1.0 34 59 0
1.0 140 -106 0
1.0 -31 159 0
1.0 -123 15 0
1.0 -16 -135 0
1.0 -151 100 0
1.0 89 180 0
1.0 2 113 0
1.0 172 -70 0
1.0 176 64 0
1.0 23 -118 0
1.0 -132 -8 0
1.0 142 123 0
1.0 -22 -45 0
1.0 -24 192 0
1.0 105 30 0
1.0 -100 117 0
1.0 181 2 0
1.0 -119 154 0
1.0 -162 -136 0
1.0 -58 62 0
1.0 -106 -120 0
1.0 -111 184 0
1.0 13 -15 0
1.0 -132 -79 0
1.0 -80 -69 0
1.0 23 -62 0
1.0 197 48 0
1.0 -109 80 0
1.0 -199 -121 0
1.0 -105 -99 0
1.0 114 17 0
1.0 -95 -17 0
1.0 -86 -71 0
1.0 132 -23 0
1.0 -70 -178 0
1.0 -57 114 0
1.0 -35 -137 0
1.0 36 -90 0
1.0 -107 85 0
1.0 -101 -150 0
1.0 20 -149 0
1.0 171 186 0
1.0 164 60 0
1.0 174 11 0
1.0 -148 -41 0
1.0 -131 2 0
1.0 87 -125 0
1.0 -74 13 0
1.0 161 -67 0
1.0 -53 122 0
1.0 182 -191 0
1.0 -2 -111 0
1.0 -152 109 0
1.0 -111 -62 0
1.0 -187 156 0
1.0 -168 -157 0
1.0 24 197 0
1.0 119 33 0
1.0 23 127 0
1.0 -38 -17 0
1.0 126 103 0
1.0 165 -189 0
1.0 144 -16 0
1.0 172 -163 0
1.0 160 101 0
1.0 -133 -163 0
1.0 -90 -33 0
1.0 -50 -151 0
1.0 54 187 0
1.0 -176 -42 0
1.0 57 179 0
1.0 142 -71 0
1.0 -171 -94 0
1.0 57 -158 0
1.0 190 38 0
1.0 189 -14 0
1.0 -24 60 0
1.0 -28 71 0
1.0 -102 -151 0
1.0 -174 48 0
1.0 -27 -46 0
1.0 -105 -70 0
1.0 -142 -14 0
1.0 -28 173 0
1.0 -32 59 0
1.0 129 40 0
1.0 190 -13 0
1.0 61 144 0
1.0 190 156 0
1.0 25 -46 0
1.0 59 167 0
1.0 -139 -4 0
1.0 62 -54 0
1.0 94 96 0
1.0 109 -22 0
1.0 165 -78 0
1.0 34 128 0
1.0 173 84 0
1.0 -51 -122 0
1.0 -126 -55 0
1.0 -109 190 0
1.0 86 -198 0
1.0 -19 -132 0
1.0 -10 19 0
1.0 147 -186 0
1.0 -70 -124 0
1.0 -45 -69 0
1.0 -124 68 0
1.0 57 -135 0
1.0 -132 -118 0
1.0 -50 99 0
1.0 -117 71 0
1.0 -56 -1 0
1.0 125 -133 0
1.0 -2 -152 0
1.0 -19 96 0
1.0 30 -190 0
1.0 -108 -154 0
1.0 52 -45 0
1.0 -115 -31 0
1.0 14 -95 0
1.0 -138 9 0
1.0 -147 72 0
1.0 28 184 0
1.0 -2 -34 0
1.0 145 -80 0
1.0 -95 174 0
1.0 -5 74 0
1.0 -168 -164 0
1.0 -172 -111 0
1.0 -183 104 0
1.0 88 33 0
1.0 67 150 0
1.0 30 -49 0
1.0 -23 104 0
1.0 177 -57 0
1.0 21 -8 0
1.0 -119 -45 0
1.0 -149 71 0
1.0 -103 -136 0
1.0 -86 -167 0
1.0 16 181 0
1.0 84 173 0
1.0 30 108 0
1.0 116 55 0
1.0 -100 151 0
1.0 21 -44 0
1.0 180 7 0
1.0 -174 -73 0
1.0 54 -21 0
1.0 -193 91 0
1.0 199 -3 0
1.0 -58 -112 0
1.0 63 82 0
1.0 126 -87 0
1.0 -94 99 0
1.0 171 152 0
1.0 -173 -83 0
1.0 -173 -159 0
1.0 162 58 0
1.0 -170 33 0
1.0 -115 179 0
1.0 -66 -121 0
1.0 19 -116 0
1.0 68 82 0
1.0 165 -175 0
1.0 -134 192 0
1.0 -50 194 0
1.0 26 -88 0
1.0 -67 -166 0
1.0 86 -125 0
1.0 40 -117 0
1.0 -199 -108 0
1.0 83 152 0
1.0 -144 -8 0
1.0 2 24 0
1.0 -112 -64 0
1.0 -29 -147 0
1.0 71 -1 0
1.0 118 -113 0
1.0 21 -165 0
1.0 -117 179 0
1.0 187 -28 0
1.0 52 -65 0
1.0 -128 -182 0
1.0 129 -50 0
1.0 -51 -90 0
1.0 2 128 0
1.0 -93 162 0
1.0 140 -43 0
1.0 -71 -122 0
1.0 187 -128 0
1.0 110 24 0
1.0 74 -142 0
1.0 31 148 0
1.0 76 -176 0
1.0 -137 180 0
1.0 22 47 0
1.0 169 -116 0
1.0 44 -97 0
1.0 -120 -141 0
1.0 -83 -30 0
1.0 -178 10 0
1.0 185 -1 0
1.0 -181 199 0
1.0 46 1 0
1.0 -117 -106 0
1.0 -2 -40 0
1.0 -180 106 0
1.0 -135 -33 0
1.0 -42 122 0
1.0 -123 -186 0
1.0 -185 146 0
1.0 147 197 0
1.0 102 -14 0
1.0 53 138 0
1.0 43 -139 0
1.0 172 70 0
1.0 192 -54 0
1.0 40 188 0
1.0 134 120 0
1.0 -117 99 0
1.0 -112 -166 0
1.0 -103 -146 0
1.0 -85 92 0
1.0 162 -13 0
1.0 67 -109 0
1.0 -96 83 0
1.0 -3 -185 0
1.0 -83 -51 0
1.0 -17 -58 0
1.0 4 157 0
1.0 -48 188 0
1.0 -1 12 0
1.0 -120 30 0
1.0 112 -103 0
1.0 88 -153 0
1.0 -3 171 0
1.0 -29 125 0
1.0 -81 -4 0
1.0 -192 -61 0
1.0 73 -101 0
1.0 130 32 0
1.0 -134 51 0
1.0 -3 190 0
1.0 160 -157 0
1.0 82 -164 0
1.0 167 -138 0
1.0 -199 30 0
1.0 131 8 0
1.0 -39 -69 0
1.0 -120 -58 0
1.0 -47 186 0
1.0 -143 154 0
1.0 -117 13 0
1.0 150 -77 0
1.0 107 190 0
1.0 197 81 0
1.0 149 198 0
1.0 -56 -1 0
1.0 -187 -120 0
1.0 -73 -102 0
1.0 114 139 0
1.0 16 -111 0
1.0 -100 30 0
1.0 -110 55 0
1.0 -53 -139 0
1.0 140 -118 0
1.0 37 -117 0
1.0 19 -7 0
1.0 -146 -168 0
1.0 78 -7 0
1.0 36 -41 0
1.0 96 -6 0
1.0 144 129 0
1.0 46 64 0
1.0 -181 -64 0
1.0 -71 87 0
1.0 -54 -125 0
1.0 -131 -60 0
1.0 -100 -184 0
1.0 -189 -114 0
1.0 42 197 0
1.0 -60 24 0
1.0 88 -161 0
1.0 -48 -169 0
1.0 94 150 0
1.0 -9 -142 0
1.0 -125 -101 0
1.0 14 45 0
1.0 -42 -60 0
1.0 -84 -114 0
1.0 -75 -179 0
1.0 148 101 0
1.0 51 55 0
1.0 -197 -55 0
1.0 156 -70 0
1.0 115 -80 0
1.0 139 169 0
1.0 -83 -197 0
1.0 176 -122 0
1.0 -23 100 0
1.0 -155 -28 0
1.0 82 98 0
1.0 167 106 0
1.0 185 -32 0
1.0 -200 93 0
1.0 90 140 0
1.0 -61 118 0
1.0 -17 -151 0
1.0 -179 86 0
1.0 184 -193 0
1.0 98 103 0
1.0 134 -68 0
1.0 160 151 0
1.0 -90 -56 0
1.0 173 -103 0
1.0 -54 188 0
1.0 74 82 0
1.0 74 -187 0
1.0 89 38 0
1.0 -106 57 0
1.0 -7 172 0
1.0 27 -29 0
1.0 -131 -80 0
1.0 68 -149 0
1.0 -30 -106 0
1.0 93 -4 0
1.0 42 -126 0
1.0 183 -159 0
1.0 131 -126 0
1.0 -154 132 0
1.0 11 145 0
1.0 93 -83 0
1.0 189 17 0
1.0 20 99 0
1.0 24 65 0
1.0 -24 -20 0
1.0 -146 80 0
1.0 -12 67 0
1.0 11 -52 0
1.0 135 -119 0
1.0 135 -50 0
1.0 148 -64 0
1.0 -128 -25 0
1.0 -44 -172 0
1.0 52 15 0
1.0 81 72 0
1.0 -123 185 0
1.0 -104 18 0
1.0 -68 182 0
1.0 -46 -9 0
1.0 -34 163 0
1.0 135 -28 0
1.0 42 -154 0
1.0 25 -133 0
1.0 117 7 0
1.0 25 184 0
1.0 -166 51 0
1.0 -59 93 0
1.0 -56 -108 0
1.0 -136 -35 0
1.0 188 23 0
1.0 -156 113 0
1.0 120 -164 0
1.0 147 -149 0
1.0 -199 143 0
1.0 -35 108 0
1.0 16 -119 0
1.0 -153 -54 0
1.0 -77 29 0
1.0 -142 111 0
1.0 74 195 0
1.0 -144 -41 0
1.0 -183 57 0
1.0 -164 -150 0
1.0 -68 186 0
1.0 -40 -59 0
1.0 -87 111 0
1.0 21 51 0
1.0 -46 -94 0
1.0 -134 -47 0
1.0 -103 131 0
1.0 80 -41 0
1.0 -26 176 0
1.0 -35 -126 0
1.0 -36 129 0
1.0 -180 38 0
1.0 132 63 0
1.0 -110 145 0
1.0 75 -116 0
1.0 -156 -125 0
1.0 100 -69 0
1.0 194 28 0
1.0 156 -4 0
1.0 -42 -35 0
1.0 97 173 0
1.0 117 -20 0
1.0 -135 97 0
1.0 21 -48 0
1.0 117 -119 0
1.0 -146 -110 0
1.0 114 -25 0
1.0 -59 -196 0
1.0 -168 165 0
1.0 184 -179 0
1.0 76 21 0
1.0 69 -81 0
1.0 200 -71 0
1.0 180 34 0
1.0 59 -84 0
1.0 79 176 0
1.0 -140 -33 0
1.0 11 5 0
1.0 -26 51 0
1.0 132 -198 0
1.0 68 174 0
1.0 -8 124 0
1.0 -7 189 0
1.0 -165 -53 0
1.0 86 61 0
1.0 -66 70 0
1.0 -121 164 0
1.0 -161 64 0
1.0 38 60 0
1.0 -183 -17 0
1.0 6 -92 0
1.0 145 5 0
1.0 -66 -102 0
1.0 171 108 0
1.0 -71 7 0
1.0 71 -128 0
1.0 -188 -136 0
1.0 -153 -63 0
1.0 -154 34 0
1.0 -39 -2 0
1.0 103 52 0
1.0 -160 56 0
1.0 63 -110 0
1.0 38 122 0
1.0 -57 194 0
1.0 -56 156 0
1.0 -190 96 0
1.0 -97 -33 0
1.0 85 166 0
1.0 22 37 0
1.0 147 -135 0
1.0 56 -58 0
1.0 -51 -4 0
1.0 -160 -90 0
1.0 -185 21 0
1.0 54 -109 0
1.0 -75 151 0
1.0 -188 -56 0
1.0 -191 197 0
1.0 -55 -126 0
1.0 130 81 0
1.0 170 -125 0
1.0 146 -15 0
1.0 -124 -115 0
1.0 66 119 0
1.0 -174 -74 0
1.0 70 -105 0
1.0 30 -169 0
1.0 49 40 0
1.0 -164 -86 0
1.0 -101 9 0
1.0 124 -45 0
1.0 163 -116 0
1.0 -190 30 0
1.0 -134 -112 0
1.0 -80 -12 0
1.0 -51 169 0
1.0 -54 -121 0
1.0 -130 32 0
1.0 77 200 0
1.0 -116 -85 0
1.0 -114 78 0
1.0 189 147 0
1.0 -159 132 0
1.0 100 -143 0
1.0 -64 -148 0
1.0 180 86 0
1.0 85 -87 0
1.0 -171 72 0
1.0 -149 -68 0
1.0 15 -142 0
1.0 -74 -200 0
1.0 -143 7 0
1.0 -155 -35 0
1.0 -120 44 0
1.0 130 -85 0
1.0 -156 -109 0
1.0 176 -117 0
1.0 -58 -45 0
1.0 -45 -146 0
1.0 -152 -31 0
1.0 65 -192 0
1.0 -35 -29 0
1.0 113 192 0
1.0 -100 49 0
1.0 165 12 0
1.0 -56 30 0
1.0 175 -58 0
1.0 88 -80 0
1.0 -71 136 0
1.0 124 -70 0
1.0 134 -80 0
1.0 -52 91 0
1.0 -157 -170 0
1.0 -123 -19 0
1.0 106 -87 0
1.0 118 -20 0
1.0 156 161 0
1.0 -31 -98 0
1.0 -178 9 0
1.0 100 93 0
1.0 63 -10 0
1.0 -29 -3 0
1.0 -89 33 0
1.0 -52 174 0
1.0 135 -80 0
1.0 -178 -80 0
1.0 -88 -75 0
1.0 168 75 0
1.0 84 -86 0
1.0 88 -180 0
1.0 -12 164 0
1.0 138 176 0
1.0 55 156 0
1.0 -35 -166 0
1.0 -41 169 0
1.0 43 -154 0
1.0 39 -53 0
1.0 -32 85 0
1.0 -49 -84 0
1.0 60 -177 0
1.0 -133 -95 0
1.0 61 -132 0
1.0 -101 -200 0
1.0 153 -146 0
1.0 -199 109 0
1.0 194 20 0
1.0 104 -180 0
1.0 157 86 0
1.0 180 23 0
1.0 -154 146 0
1.0 -145 49 0
1.0 195 -68 0
1.0 177 -6 0
1.0 26 -96 0
1.0 76 40 0
1.0 -125 -169 0
1.0 -191 -178 0
1.0 -123 84 0
1.0 -133 -197 0
1.0 -64 53 0
1.0 59 143 0
1.0 38 -21 0
1.0 -61 -105 0
1.0 74 68 0
1.0 45 -32 0
1.0 116 8 0
1.0 -4 198 0
1.0 -50 -95 0
1.0 -37 116 0
1.0 -137 -5 0
1.0 -109 -135 0
1.0 3 70 0
1.0 102 55 0
1.0 62 49 0
1.0 -46 41 0
1.0 135 -39 0
1.0 155 195 0
1.0 199 -34 0
1.0 169 -70 0
1.0 140 136 0
1.0 190 33 0
1.0 -81 -125 0
1.0 165 48 0
1.0 87 25 0
1.0 -19 117 0
1.0 -151 -21 0
1.0 90 14 0
1.0 149 -108 0
1.0 -140 129 0
1.0 -54 106 0
1.0 -153 169 0
1.0 193 189 0
1.0 105 13 0
1.0 -33 -154 0
1.0 -168 -63 0
1.0 171 -22 0
1.0 -151 44 0
1.0 149 -78 0
1.0 -46 139 0
1.0 127 22 0
1.0 34 80 0
1.0 -33 60 0
1.0 -123 140 0
1.0 162 -171 0
1.0 -15 -133 0
1.0 10 137 0
1.0 76 7 0
1.0 28 145 0
1.0 -24 120 0
1.0 179 -115 0
1.0 -54 174 0
1.0 -144 -196 0
1.0 -129 -42 0
1.0 -179 187 0
1.0 193 88 0
1.0 33 90 0
1.0 -9 -7 0
1.0 121 -171 0
1.0 -144 82 0
1.0 78 116 0
1.0 -157 -167 0
1.0 -153 -138 0
1.0 -26 46 0
1.0 -135 -45 0
1.0 -52 -28 0
1.0 -198 -20 0
1.0 102 -136 0
1.0 -51 73 0
1.0 -39 -130 0
1.0 -67 133 0
1.0 -178 -100 0
1.0 145 -65 0
1.0 -92 188 0
1.0 7 -115 0
1.0 50 -59 0
1.0 -131 -74 0
1.0 -3 51 0
1.0 -184 -97 0
1.0 197 -111 0
1.0 -176 129 0
1.0 -116 -105 0
1.0 19 187 0
1.0 -45 -120 0
1.0 -193 -77 0
1.0 127 -106 0
1.0 2 -24 0
1.0 -135 -144 0
1.0 -73 -76 0
1.0 -180 -134 0
1.0 120 -143 0
1.0 -62 35 0
1.0 111 85 0
1.0 -191 -111 0
1.0 -135 18 0
1.0 -162 130 0
1.0 5 -156 0
1.0 -90 133 0
1.0 -75 -48 0
1.0 -83 -113 0
1.0 198 -38 0
1.0 -148 177 0
1.0 -195 -170 0
1.0 -99 -132 0
1.0 87 -12 0
1.0 -145 70 0
1.0 -118 -158 0
1.0 -71 144 0
1.0 181 -22 0
1.0 199 -35 0
1.0 -5 -163 0
1.0 94 -139 0
1.0 -151 95 0
1.0 -164 142 0
1.0 100 -68 0
1.0 11 -73 0
1.0 -95 94 0
1.0 128 -131 0
1.0 94 -36 0
1.0 -175 -43 0
1.0 137 -126 0
1.0 -68 -132 0
1.0 -200 63 0
1.0 136 175 0
1.0 -69 -122 0
1.0 -53 -9 0
1.0 -44 165 0
1.0 -7 -103 0
1.0 29 162 0
1.0 94 27 0
1.0 -90 200 0
1.0 175 105 0
1.0 27 178 0
1.0 186 167 0
1.0 131 -160 0
1.0 62 191 0
1.0 -152 126 0
1.0 -153 48 0
1.0 48 41 0
1.0 146 -121 0
1.0 98 103 0
1.0 -69 -76 0
1.0 -35 161 0
1.0 -151 -18 0
1.0 -144 172 0
1.0 -20 86 0
1.0 127 3 0
1.0 124 152 0
1.0 -55 -94 0
1.0 -169 18 0
1.0 178 -60 0
1.0 78 86 0
1.0 -57 179 0
1.0 -65 -54 0
1.0 57 -31 0
1.0 183 107 0
1.0 -1 -105 0
1.0 -122 82 0
1.0 141 72 0
1.0 157 59 0
1.0 38 -155 0
1.0 8 32 0
1.0 62 156 0
1.0 63 44 0
1.0 148 40 0
1.0 -121 5 0
1.0 76 198 0
1.0 57 118 0
1.0 -72 134 0
1.0 -166 88 0
1.0 43 -186 0
1.0 -29 -151 0
1.0 190 -199 0
1.0 -3 16 0
1.0 -13 50 0
1.0 -167 156 0
1.0 -90 158 0
1.0 45 60 0
1.0 -45 152 0
1.0 102 160 0
1.0 158 -95 0
1.0 110 -172 0
1.0 -21 -150 0
1.0 106 -154 0
1.0 111 -144 0
1.0 3 131 0
1.0 -83 -35 0
1.0 194 -168 0
1.0 -63 -75 0
1.0 46 152 0
1.0 102 87 0
1.0 40 -81 0
1.0 -24 52 0
1.0 183 148 0
1.0 182 -193 0
1.0 -161 123 0
1.0 -197 39 0
1.0 -190 90 0
1.0 176 164 0
1.0 -44 100 0
1.0 152 -71 0
1.0 -18 -166 0
1.0 -158 -47 0
1.0 -169 -100 0
1.0 138 -136 0
1.0 26 117 0
1.0 80 -117 0
1.0 -17 -182 0
1.0 -52 84 0
1.0 49 100 0
1.0 -146 -41 0
1.0 141 66 0
1.0 1 87 0
1.0 3 24 0
1.0 141 -44 0
1.0 -26 196 0
1.0 -79 -27 0
1.0 -126 15 0
1.0 -56 -59 0
1.0 124 -63 0
1.0 -150 -79 0
1.0 103 178 0
1.0 22 40 0
1.0 -35 -126 0
1.0 152 72 0
1.0 -86 -176 0
1.0 -34 -133 0
1.0 195 -10 0
1.0 89 -33 0
1.0 11 130 0
1.0 170 34 0
1.0 -160 -4 0
1.0 -76 -159 0
1.0 -134 -137 0
1.0 -69 39 0
1.0 49 -8 0
1.0 -41 104 0
1.0 34 161 0
1.0 194 -163 0
1.0 167 125 0
1.0 83 53 0
1.0 -189 106 0
1.0 -145 -109 0
1.0 -117 -128 0
1.0 32 56 0
1.0 16 93 0
1.0 -56 74 0
1.0 198 27 0
1.0 80 68 0
1.0 -173 -80 0
1.0 -188 -47 0
1.0 175 39 0
1.0 95 -71 0
1.0 -163 136 0
1.0 10 83 0
1.0 109 -105 0
1.0 172 -183 0
1.0 62 182 0
1.0 -28 172 0
1.0 10 -16 0
1.0 86 77 0
1.0 13 133 0
1.0 16 -107 0
1.0 -12 -115 0
1.0 -98 -169 0
1.0 151 -190 0
1.0 -161 -163 0
1.0 178 188 0
1.0 -64 87 0
1.0 20 180 0
1.0 -86 126 0
1.0 40 -72 0
1.0 41 -8 0
1.0 -197 -106 0
1.0 -69 150 0
1.0 -137 -1 0
1.0 88 -23 0
1.0 -2 173 0
1.0 -98 -101 0
1.0 173 65 0
1.0 73 172 0
1.0 78 -172 0
1.0 -121 154 0
1.0 154 103 0
1.0 -125 -132 0
1.0 105 89 0
1.0 -190 -199 0
1.0 -64 -13 0
1.0 185 178 0
1.0 150 32 0
1.0 -185 -200 0
1.0 -102 185 0
1.0 -117 126 0
1.0 15 168 0
1.0 -167 160 0
1.0 -173 -141 0
1.0 118 172 0
1.0 -4 -27 0
1.0 -26 -65 0
1.0 -49 -105 0
1.0 -31 108 0
1.0 75 6 0
1.0 165 -16 0
1.0 156 37 0
1.0 -9 113 0
1.0 -139 -78 0
1.0 142 -126 0
1.0 -31 47 0
1.0 -155 139 0
1.0 144 -155 0
1.0 170 -141 0
1.0 -178 -140 0
1.0 -53 -140 0
1.0 -17 -197 0
1.0 -123 -49 0
1.0 96 103 0
1.0 41 -120 0
1.0 74 148 0
1.0 -88 139 0
1.0 79 -169 0
1.0 -108 -49 0
1.0 45 -80 0
1.0 -128 31 0
1.0 134 -135 0
1.0 -54 -151 0
1.0 -99 -51 0
1.0 189 140 0
1.0 -109 102 0
1.0 -150 -122 0
1.0 -1 -24 0
1.0 -55 -83 0
1.0 -17 24 0
1.0 -175 118 0
1.0 -169 -59 0
1.0 110 25 0
1.0 -23 -33 0
1.0 -173 -156 0
1.0 118 73 0
1.0 25 37 0
1.0 198 -88 0
1.0 86 96 0
1.0 -155 41 0
1.0 65 179 0
1.0 11 -37 0
1.0 -193 -176 0
1.0 -49 29 0
1.0 -66 129 0
1.0 -17 -145 0
1.0 -41 -62 0
1.0 102 -118 0
1.0 96 -134 0
1.0 171 -85 0
1.0 61 -68 0
1.0 -97 -184 0
1.0 113 -105 0
1.0 50 4 0
1.0 65 -186 0
1.0 -103 -144 0
1.0 -78 187 0
1.0 72 -194 0
1.0 62 -83 0
1.0 -67 -25 0
1.0 -130 -145 0
1.0 149 137 0
1.0 -122 155 0
1.0 98 -114 0
1.0 101 -127 0
1.0 -120 -33 0
1.0 -116 -147 0
1.0 -172 -59 0
1.0 4 -68 0
1.0 -5 -150 0
1.0 -104 145 0
1.0 -58 -173 0
1.0 -99 198 0
1.0 -31 -35 0
1.0 -181 -139 0
1.0 197 89 0
1.0 -156 -133 0
1.0 83 -117 0
1.0 -61 -37 0
1.0 10 -163 0
1.0 -161 -7 0
1.0 -41 126 0
1.0 -65 64 0
1.0 152 -26 0
1.0 159 13 0
1.0 130 -154 0
1.0 -191 -14 0
1.0 -177 -186 0
1.0 -192 35 0
1.0 161 64 0
1.0 128 26 0
1.0 -52 147 0
1.0 159 54 0
1.0 8 -78 0
1.0 -92 188 0
1.0 173 -105 0
1.0 -139 133 0
1.0 -197 -50 0
1.0 75 -9 0
1.0 -155 -189 0
1.0 43 186 0
1.0 64 -81 0
1.0 68 44 0
1.0 149 27 0
1.0 -160 -200 0
1.0 50 -110 0
1.0 119 82 0
1.0 -70 -186 0
1.0 -172 189 0
1.0 -69 -9 0
1.0 -53 12 0
1.0 39 -180 0
1.0 -180 74 0
1.0 -184 -32 0
1.0 -113 -3 0
1.0 189 -162 0
1.0 -151 56 0
1.0 -65 -186 0
1.0 -197 131 0
1.0 110 4 0
1.0 -78 186 0
1.0 -18 -70 0
1.0 -73 138 0
1.0 99 7 0
1.0 63 -18 0
1.0 3 -23 0
1.0 153 160 0
1.0 -164 68 0
1.0 -54 69 0
1.0 139 65 0
1.0 2 113 0
1.0 -120 -94 0
1.0 -111 -17 0
1.0 -39 -153 0
1.0 112 147 0
1.0 -15 6 0
1.0 -75 19 0
1.0 83 139 0
1.0 -51 -95 0
1.0 -189 133 0
1.0 149 -62 0
1.0 -14 -126 0
1.0 72 34 0
1.0 -40 -118 0
1.0 -137 91 0
1.0 -29 149 0
1.0 44 87 0
1.0 -20 -3 0
1.0 -65 144 0
1.0 69 -136 0
1.0 169 6 0
1.0 -124 180 0
1.0 71 47 0
1.0 -195 182 0
1.0 69 29 0
1.0 32 1 0
1.0 -144 12 0
1.0 -148 -178 0
1.0 -184 -179 0
1.0 -159 45 0
1.0 -92 45 0
1.0 -27 107 0
1.0 -136 -194 0
1.0 194 -39 0
1.0 -51 -36 0
1.0 -14 -102 0
1.0 -80 37 0
1.0 82 -71 0
1.0 116 -194 0
1.0 101 184 0
1.0 178 -19 0
1.0 -57 -65 0
1.0 -101 -59 0
1.0 -160 17 0
1.0 54 -15 0
1.0 -86 144 0
1.0 -138 168 0
1.0 152 -179 0
1.0 -198 76 0
1.0 -140 9 0
1.0 -67 66 0
1.0 83 -65 0
1.0 80 -144 0
1.0 -87 179 0
1.0 147 108 0
1.0 87 136 0
1.0 -12 -127 0
1.0 -136 100 0
1.0 165 146 0
1.0 -11 95 0
1.0 38 -53 0
1.0 -32 -21 0
1.0 129 11 0
1.0 147 -102 0
1.0 -28 -37 0
1.0 -136 -102 0
1.0 -47 194 0
1.0 -88 -129 0
1.0 182 2 0
1.0 -23 -197 0
1.0 -7 -66 0
1.0 -168 -64 0
1.0 -100 21 0
1.0 -122 -123 0
1.0 116 83 0
1.0 -11 -172 0
1.0 174 -177 0
1.0 -173 -196 0
1.0 -62 112 0
1.0 175 44 0
1.0 -64 -182 0
1.0 -105 46 0
1.0 128 -179 0
1.0 -151 -152 0
1.0 -128 -136 0
1.0 132 -67 0
1.0 179 -14 0
1.0 57 -46 0
1.0 -27 -138 0
1.0 -184 -59 0
1.0 38 -175 0
1.0 -127 180 0
1.0 -115 32 0
1.0 99 36 0
1.0 49 -61 0
1.0 106 -57 0
